c   #vars: 43   #clauses: 181   #literals: 528
c 
p cnf 43 181
-1 -2 0
-3 -4 0
-5 -6 0
-7 -8 0
10 21 22 -36 0
-7 14 15 16 0
-11 -12 0
5 6 39 40 0
10 -21 31 -36 0
-14 -15 0
11 12 -20 43 0
-17 -18 0
-19 -20 0
-21 -22 0
-23 -24 0
-25 -26 0
13 -25 41 42 0
-27 -28 0
-29 -30 0
25 26 35 36 0
7 8 -11 34 0
5 6 -29 34 0
-32 -33 0
-35 -36 0
-37 -38 0
7 8 23 24 0
-39 -40 0
-41 -42 0
5 6 27 28 0
9 -20 -25 43 0
9 -12 -25 43 0
-1 -19 0
-2 -20 0
7 8 -27 -28 0
-1 -21 0
-2 -22 0
13 -35 41 42 0
-1 -32 0
-2 -33 0
7 8 21 22 0
-1 -41 0
-2 -42 0
10 -21 -22 31 0
-9 11 12 43 0
-4 -16 0
-3 -23 0
-4 -24 0
5 6 25 26 0
-3 -32 0
-4 -33 0
14 15 41 42 0
-3 -39 0
-4 -40 0
11 12 27 28 0
-5 -25 0
-6 -26 0
-5 -27 0
-6 -28 0
11 12 -29 34 0
-5 -29 0
-6 -30 0
-6 -34 0
29 30 39 40 0
-5 -37 0
-6 -38 0
9 -12 -17 43 0
-5 -39 0
-6 -40 0
13 -25 35 36 0
-12 19 20 43 0
-8 -16 0
-7 -21 0
-8 -22 0
1 2 32 33 0
-7 -23 0
-8 -24 0
11 12 23 24 0
-8 -34 0
21 22 -27 -28 0
17 18 41 42 0
10 21 22 -31 0
-9 -18 0
-5 11 12 34 0
10 -31 35 36 0
-9 -26 0
23 24 32 33 0
10 -22 35 36 0
-7 -8 27 28 0
-10 -21 0
-3 14 15 16 0
7 8 -29 34 0
-5 7 8 34 0
3 4 -14 16 0
9 17 18 -25 0
-10 -35 0
3 4 -7 16 0
11 12 17 18 0
-11 -17 0
-12 -18 0
1 2 21 22 0
-11 -23 0
-12 -24 0
-7 11 12 34 0
-11 -27 0
-12 -28 0
10 -17 31 -36 0
-12 -34 0
5 6 -11 34 0
-11 -43 0
13 25 26 -41 0
25 26 41 42 0
13 25 26 -35 0
-17 21 22 31 0
-13 -26 0
3 4 39 40 0
-10 21 22 31 0
-13 -36 0
9 -17 -20 43 0
-5 29 30 34 0
-13 -42 0
5 6 37 38 0
-9 19 20 43 0
-15 -16 0
1 2 19 20 0
-14 -32 0
-15 -33 0
-14 -37 0
-15 -38 0
-10 17 18 31 0
-14 -41 0
-15 -42 0
-11 29 30 34 0
-18 -31 0
5 6 -7 34 0
-17 -32 0
-18 -33 0
10 -17 -22 31 0
-17 -41 0
-18 -42 0
3 4 23 24 0
-19 -35 0
-20 -36 0
13 35 36 -41 0
-19 -37 0
-20 -38 0
14 15 32 33 0
-19 -43 0
29 30 37 38 0
-7 29 30 34 0
-22 -31 0
-21 -32 0
-22 -33 0
17 18 32 33 0
9 -17 25 26 0
19 20 35 36 0
-23 -32 0
-24 -33 0
27 28 39 40 0
-25 -35 0
-26 -36 0
9 17 18 -43 0
-25 -41 0
-26 -42 0
9 25 26 -43 0
-27 -39 0
-28 -40 0
-21 -22 27 28 0
21 22 32 33 0
5 6 29 30 0
17 18 -21 31 0
-30 -34 0
3 4 32 33 0
-29 -37 0
-30 -38 0
1 2 41 42 0
-29 -39 0
-30 -40 0
14 15 37 38 0
-3 7 8 16 0
19 20 37 38 0
7 8 -14 16 0
